webassembly/ejemplos_dzn/10/folder10_json_95.dzn
TERM = { '.', 's(2)', 's(5)', 's(4)', 'in_1', 'local_0', 'local_1', 'in_2', 'in_4', 'in_3', 's(6)', 's(1)', 's(0)', 's(3)', 'in_0'};
null = '.';
s = 10;
n = 10;
ndeps = 3;
max_registers_sz = 5;
NR = 2;
registers = [|'local_0', 's(0)', |'local_1', 's(0)'|];
dependencies = [|'i32.load16_u_0', 'i32.store16_2', |'i32.store16_2', 'i32.load16_s_6', |'i32.load16_s_6', 'call[function_index(0)]_9'|];
GET_ENUM = { GET1, GET2, GET3, GET4, GET5, GET6, GET7};
SET_ENUM = { SET1, SET2, SET3, SET4, SET5, SET6, SET7};
TEE_ENUM = { TEE1, TEE2, TEE3, TEE4, TEE5, TEE6, TEE7};
N = 6;
OP = { 'i32.const_0', 'i32.sub_0', 'call[function_index(0)]_9', 'i32.load16_u_0', 'i32.store16_2', 'i32.load16_s_6' };
in_ops = [0, 2, 3, 1, 2, 1 ];
out_ops = [1, 1, 3, 1, 0, 1 ];
in1 = ['.', 's(6)', 's(2)', 'in_0', 'in_1', 'local_1' ];
in2 = ['.', 'in_3', 's(1)', '.', 'in_2', '.' ];
in3 = ['.', '.', 'in_4', '.', '.', '.' ];
out1 = ['s(6)', 's(1)', 's(5)', 's(0)', '.', 's(2)' ];
out2 = ['.', '.', 's(4)', '.', '.', '.' ];
out3 = ['.', '.', 's(3)', '.', '.', '.' ];
comm = [false, false, false, false, false, false ];
gas = [1, 1, 1, 1, 1, 1 ];
sz = [1, 1, 1, 1, 1, 1 ];
stor = [false, false, true, false, true, false ];
lb = [ 1, 1, 1, 1, 1, 1 ];
ub = [ 10, 10, 10, 10, 10, 10 ];
startstack = [ 'in_0', 'in_1', 'in_2', 'in_3', 'in_4', null, null, null, null, null ];
endstack = [ 's(5)', 's(4)', 's(3)', null, null, null, null, null, null, null ];
