webassembly/ejemplos_results/folder10_json_95.txt
value = 10;
fgas = [1, 1, 1, 1, 1, 1, 2, 1, 1, 1];
fsize = [1, 1, 1, 1, 1, 1, 1, 1, 1, 1];
states = 
[|    in_0,   in_1,   in_2, in_3, in_4,  '.', '.', '.', '.',  '.'
 |  's(0)',   in_0,   in_2, in_3, in_4,  '.', '.', '.', '.',  '.'
 |  's(0)',   in_0,   in_2, in_3, in_4,  '.', '.', '.', '.',  '.'
 |  's(0)',   in_0,   in_2, in_3, in_4,  '.', '.', '.', '.',  '.'
 |  's(6)',   in_3,   in_0, in_2, in_3, in_4, '.', '.', '.',  '.'
 |  's(1)',   in_2,   in_2, in_3, in_4,  '.', '.', '.', '.', in_0
 |  's(6)',   in_1,   in_2, in_2, in_3, in_4, '.', '.', '.',  '.'
 |    in_1,   in_2,   in_2, in_3, in_4,  '.', '.', '.', '.',  '.'
 | local_1,   in_3,   in_4,  '.',  '.',  '.', '.', '.', '.',  '.'
 |  's(2)', 's(1)',   in_4,  '.',  '.',  '.', '.', '.', '.',  '.'
 |  's(5)', 's(4)', 's(3)',  '.',  '.',  '.', '.', '.', '.',  '.'
 |];
register_states = 
[| local_0, local_1, '.', '.', '.', '.', '.'
 | local_0, local_1, '.', '.', '.', '.', '.'
 | local_0,  's(0)', '.', '.', '.', '.', '.'
 |  's(0)',  's(0)', '.', '.', '.', '.', '.'
 |  's(0)',  's(0)', '.', '.', '.', '.', '.'
 |  's(0)',  's(0)', '.', '.', '.', '.', '.'
 |  's(0)',  's(0)', '.', '.', '.', '.', '.'
 |  's(0)',  's(0)', '.', '.', '.', '.', '.'
 |  's(0)',  's(0)', '.', '.', '.', '.', '.'
 |  's(0)',  's(0)', '.', '.', '.', '.', '.'
 |  's(0)',  's(0)', '.', '.', '.', '.', '.'
 |];
program = [O('i32.load16_u_0'), TEE(TEE2), TEE(TEE1), O('i32.const_0'), O('i32.sub_0'), O('i32.const_0'), POP, O('i32.store16_2'), O('i32.load16_s_6'), O('call[function_index(0)]_9')];
% time elapsed: 0.24 s
----------
==========
% time elapsed: 0.27 s
% [value > 9]
